\ Model Cutting Stock Problem
\ LP format - for model browsing. Use MPS format to capture full model detail.
Minimize
  - 45749.72662363027 x[0] - 50680.51312013877 x[1] - 81434.20205132432 x[2]
   - 52243.26782601807 x[3] - 34428.23828748106 x[4]
   - 99248.95837338651 x[5] - 34421.9368346394 x[6]
   + 4.3894320716857004e+08 Constant
Subject To
 R0: 45749.72662363027 x[0] + 50680.51312013877 x[1]
   + 81434.20205132432 x[2] + 52243.26782601807 x[3]
   + 34428.23828748106 x[4] + 99248.95837338651 x[5]
   + 34421.9368346394 x[6] <= 4.3894320716857004e+08
 R1: x[0] >= 89.46925524861015
 R2: x[1] >= 31.5410561883153
 R3: x[2] >= 59.83030923393623
 R4: x[3] >= 10.91696757769625
 R5: x[4] >= 69.76861545816804
 R6: x[5] >= 36.54505356223608
 R7: x[6] >= 71.6895788878176
Bounds
 Constant = 1
End
